NAME : gr202.tour
COMMENT : Optimum tour for gr202.tsp (Length 40160)
TYPE : TOUR
DIMENSION : 202
TOUR_SECTION  
73
72
71
70
69
51
30
31
32
33
26
20
15
12
13
14
16
3
1
2
5
4
8
6
7
9
10
17
18
11
19
21
22
23
24
137
138
142
25
146
154
155
153
152
151
150
149
148
147
145
144
143
139
140
141
185
184
136
186
175
176
177
189
188
187
190
192
191
193
194
198
197
199
200
201
202
196
195
183
182
179
181
180
178
174
172
173
171
135
170
169
164
165
166
162
161
160
163
159
158
157
91
89
90
81
82
80
79
78
77
76
75
74
68
67
85
84
83
86
87
88
94
92
93
97
96
98
156
102
101
100
95
50
48
49
47
46
45
44
43
42
41
103
104
105
106
107
108
109
110
111
99
112
113
114
115
116
117
168
167
134
133
132
126
125
122
121
119
120
124
123
39
130
131
129
128
127
29
27
28
37
38
118
40
36
35
34
53
56
52
55
54
57
58
59
60
61
62
66
65
63
64
-1
EOF
